Route #1: 1 45 30 4 53 47 
Route #2: 29 7 37 20 11 33 
Route #3: 46 9 27 18 28 17 10 56 
Route #4: 43 54 24 52 38 
Route #5: 5 21 41 8 15 51 25 36 
Route #6: 26 39 2 23 42 35 
Route #7: 16 13 44 14 34 19 
Route #8: 40 3 31 55 50 32 
Route #9: 6 22 12 48 49 
cost 1782.18